scale6.lp
\* Problem: Scale 6 - CallMaster *\

Maximize
 z: + x1 + x2 + x3 + x4 + x5 + x6 + x7 + x8 + x9 + x10 + x11 + x12 + x13
 + x14 + x15 + x16 + x17 + x18 + x19 + x20 + x21 + x22 + x23 + x24

Subject To
 c1: + x24 + x23 + x22 + x21 + x20 + x1 >= 29
 c2: + x24 + x23 + x22 + x21 + x2 + x1 >= 17
 c3: + x24 + x23 + x22 + x3 + x2 + x1 >= 9
 c4: + x24 + x23 + x4 + x3 + x2 + x1 >= 12
 c5: + x24 + x5 + x4 + x3 + x2 + x1 >= 26
 c6: + x6 + x5 + x4 + x3 + x2 + x1 >= 30
 c7: + x7 + x6 + x5 + x4 + x3 + x2 >= 54
 c8: + x8 + x7 + x6 + x5 + x4 + x3 >= 66
 c9: + x9 + x8 + x7 + x6 + x5 + x4 >= 83
 c10: + x10 + x9 + x8 + x7 + x6 + x5 >= 95
 c11: + x11 + x10 + x9 + x8 + x7 + x6 >= 77
 c12: + x12 + x11 + x10 + x9 + x8 + x7 >= 85
 c13: + x13 + x12 + x11 + x10 + x9 + x8 >= 88
 c14: + x14 + x13 + x12 + x11 + x10 + x9 >= 105
 c15: + x15 + x14 + x13 + x12 + x11 + x10 >= 114
 c16: + x16 + x15 + x14 + x13 + x12 + x11 >= 128
 c17: + x17 + x16 + x15 + x14 + x13 + x12 >= 114
 c18: + x18 + x17 + x16 + x15 + x14 + x13 >= 117
 c19: + x19 + x18 + x17 + x16 + x15 + x14 >= 102
 c20: + x20 + x19 + x18 + x17 + x16 + x15 >= 90
 c21: + x21 + x20 + x19 + x18 + x17 + x16 >= 81
 c22: + x22 + x21 + x20 + x19 + x18 + x17 >= 71
 c23: + x23 + x22 + x21 + x20 + x19 + x18 >= 57
 c24: + x24 + x23 + x22 + x21 + x20 + x19 >= 43

Generals
 x1
 x2
 x3
 x4
 x5
 x6
 x7
 x8
 x9
 x10
 x11
 x12
 x13
 x14
 x15
 x16
 x17
 x18
 x19
 x20
 x21
 x22
 x23
 x24

End
