glpk/solutions/scale6.sol
Scale 6 - CallMaster
z = 306.0
x1 = 9.0
x2 = 0.0
x3 = 0.0
x4 = 3.0
x5 = 14.0
x6 = 4.0
x7 = 33.0
x8 = 12.0
x9 = 17.0
x10 = 15.0
x11 = 0.0
x12 = 11.0
x13 = 33.0
x14 = 29.0
x15 = 26.0
x16 = 29.0
x17 = 0.0
x18 = 0.0
x19 = 18.0
x20 = 45.0
x21 = 8.0
x22 = 0.0
x23 = 0.0
x24 = 0.0
